50 83
123 151 1
69 185 2
142 185 1
185 194 1
185 227 1
83 153 2
109 201 1
82 279 2
44 189 1
202 340 1
162 367 1
86 87 6
108 170 1
77 164 2
50 238 1
106 196 2
69 279 3
167 368 1
217 255 1
102 255 1
95 206 1
91 95 1
99 181 1
79 130 2
69 264 1
91 186 1
235 299 1
127 326 1
134 165 1
85 153 1
169 327 1
85 167 8
67 288 1
126 179 1
104 209 1
78 209 1
64 128 2
127 325 1
126 146 1
73 217 9
140 217 1
171 185 1
109 158 1
79 209 3
89 151 1
131 160 1
48 196 1
122 325 1
107 178 2
121 336 2
500 1000 
500 1000 
500 1000 
500 1000 
500 1000 
500 1000 
500 1000 
500 1000 
500 1000 
500 1000 
500 1000 
500 1000 
500 1000 
500 1000 
500 1000 
500 1000 
500 1000 
500 1000 
500 1000 
500 1000 
500 1000 
500 1000 
500 1000 
500 1000 
500 1000 
500 1000 
500 1000 
500 1000 
500 1000 
500 1000 
500 1000 
500 1000 
500 1000 
500 1000 
500 1000 
500 1000 
500 1000 
500 1000 
500 1000 
500 1000 
500 1000 
500 1000 
500 1000 
500 1000 
500 1000 
500 1000 
500 1000 
500 1000 
500 1000 
500 1000 
500 1000 
500 1000 
500 1000 
500 1000 
500 1000 
500 1000 
500 1000 
500 1000 
500 1000 
500 1000 
500 1000 
500 1000 
500 1000 
500 1000 
500 1000 
500 1000 
500 1000 
500 1000 
500 1000 
500 1000 
500 1000 
500 1000 
500 1000 
500 1000 
500 1000 
500 1000 
500 1000 
500 1000 
500 1000 
500 1000 
500 1000 
500 1000 
500 1000 
